networks/zoo_118_685/zoo_118_685.txt
Number of groups: 75.999999999740652
Flow 2: {1 34} 
Flow 4: {2 5} 
Flow 20: {3 34} {34 36} {36 95} 
Flow 26: {4 36} {36 54} {54 5} {5 64} 
Flow 35: {23 9} {9 68} 
Flow 67: {36 16} {16 75} 
Flow 75: {15 27} {27 86} 
Flow 82: {54 7} {7 44} {44 103} 
Flow 83: {6 54} {54 11} {11 45} {45 104} 
Flow 91: {7 54} {54 36} {36 4} {4 63} 
Flow 96: {36 57} {57 10} {10 69} 
Flow 97: {44 11} {11 70} 
Flow 125: {8 5} {5 54} {54 6} {6 65} 
Flow 134: {5 11} {11 22} {22 21} {21 80} 
Flow 148: {54 58} {58 117} 
Flow 150: {11 44} {44 7} {7 66} 
Flow 155: {9 23} {23 22} {22 81} 
Flow 160: {10 57} {57 36} {36 34} 
Flow 182: {45 15} {15 29} {29 88} 
Flow 184: {31 32} {32 91} 
Flow 190: {11 43} {43 102} 
Flow 198: {12 54} 
Flow 199: {13 21} {21 22} {22 11} 
Flow 200: {14 29} 
Flow 202: {5 2} {2 61} 
Flow 213: {29 14} {14 73} 
Flow 220: {22 24} {24 83} 
Flow 230: {33 35} 
Flow 232: {36 37} {37 96} 
Flow 233: {38 97} 
Flow 235: {48 41} {41 100} 
Flow 240: {48 46} {46 105} 
Flow 243: {48 49} {49 108} 
Flow 244: {36 50} {50 109} 
Flow 245: {34 51} {51 110} 
Flow 251: {15 45} {45 59} {59 118} 
Flow 264: {16 34} {34 55} 
Flow 282: {19 22} {22 23} {23 82} 
Flow 320: {20 22} {22 19} {19 48} {48 107} 
Flow 388: {24 22} 
Flow 390: {25 36} 
Flow 405: {26 36} {36 38} {38 58} 
Flow 409: {27 15} {15 54} {54 12} {12 71} 
Flow 416: {28 54} 
Flow 439: {32 31} {31 33} {33 15} 
Flow 457: {33 18} {18 55} {55 114} 
Flow 492: {19 40} {40 99} 
Flow 504: {34 16} {16 52} {52 111} 
Flow 509: {35 33} {33 34} {34 93} 
Flow 525: {34 33} {33 17} {17 76} 
Flow 526: {36 55} {55 18} {18 77} 
Flow 535: {54 28} {28 87} 
Flow 541: {36 35} {35 94} 
Flow 547: {54 43} 
Flow 551: {48 47} {47 106} 
Flow 557: {36 39} {39 53} {53 112} 
Flow 565: {39 36} 
Flow 569: {40 19} {19 54} 
Flow 570: {41 48} 
Flow 572: {42 19} 
Flow 574: {43 54} {54 15} {15 34} {34 1} {1 60} 
Flow 577: {43 11} {11 5} {5 8} {8 67} 
Flow 593: {46 48} 
Flow 595: {47 48} {48 15} 
Flow 598: {49 48} 
Flow 600: {50 36} 
Flow 606: {51 34} {34 15} {15 48} {48 19} {19 78} 
Flow 612: {52 16} {16 36} 
Flow 623: {55 34} {34 3} {3 62} 
Flow 638: {55 36} {36 26} {26 85} 
Flow 640: {18 33} {33 31} {31 90} 
Flow 650: {56 15} {15 74} 
Flow 671: {58 38} {38 36} {36 25} {25 84} 
Flow 675: {58 29} {29 15} {15 33} {33 92} 
Flow 678: {58 54} {54 19} {19 42} {42 101} 
Flow 685: {59 45} {45 11} {11 54} {54 113} 
Time taken running everything: 7 seconds
