networks/zoo_118_685/zoo_118_685.sol
<?xml version = "1.0" encoding="UTF-8" standalone="yes"?>
<CPLEXSolution version="1.2">
 <header
   problemName="networks/zoo_118_685/zoo_118_685.lp"
   solutionName="incumbent"
   solutionIndex="-1"
   objectiveValue="75.999999999740652"
   solutionTypeValue="3"
   solutionTypeString="primal"
   solutionStatusValue="101"
   solutionStatusString="integer optimal solution"
   solutionMethodString="mip"
   primalFeasible="1"
   dualFeasible="1"
   MIPNodes="0"
   MIPIterations="10598"
   writeLevel="3"/>
 <quality
   epInt="1.0000000000000001e-05"
   epRHS="9.9999999999999995e-07"
   maxIntInfeas="2.000000165480742e-09"
   maxPrimalInfeas="1.2000000992884452e-08"
   maxX="4"
   maxSlack="10"/>
 <variables>
  <variable name="Y(2,1)" index="111" value="1"/>
  <variable name="Y(4,2)" index="334" value="1.0000000000295461"/>
  <variable name="Y(4,5)" index="337" value="9.8486917580959425e-12"/>
  <variable name="Y(4,54)" index="385" value="-3.939476703238377e-11"/>
  <variable name="Y(5,1)" index="444" value="2.1767143643103282e-10"/>
  <variable name="Y(17,31)" index="1805" value="-9.6741947785972116e-11"/>
  <variable name="Y(20,36)" index="2143" value="1"/>
  <variable name="Y(26,5)" index="2779" value="0.99999999967349273"/>
  <variable name="Y(30,36)" index="3253" value="8.1626823294552336e-11"/>
  <variable name="Y(30,54)" index="3271" value="6.1220117470914252e-11"/>
  <variable name="Y(35,9)" index="3782" value="1"/>
  <variable name="Y(41,21)" index="4460" value="-8.8888155527477041e-10"/>
  <variable name="Y(67,16)" index="7341" value="1"/>
  <variable name="Y(72,23)" index="7903" value="1.1428261670332063e-09"/>
  <variable name="Y(75,27)" index="8240" value="1"/>
  <variable name="Y(76,29)" index="8353" value="-1.9348419103691447e-11"/>
  <variable name="Y(82,44)" index="9033" value="1"/>
  <variable name="Y(83,45)" index="9145" value="1"/>
  <variable name="Y(91,4)" index="9993" value="1"/>
  <variable name="Y(96,10)" index="10554" value="1"/>
  <variable name="Y(97,11)" index="10666" value="1"/>
  <variable name="Y(125,6)" index="13769" value="1"/>
  <variable name="Y(134,21)" index="14783" value="1"/>
  <variable name="Y(139,31)" index="15347" value="-1.9348419103691447e-11"/>
  <variable name="Y(148,58)" index="16373" value="1"/>
  <variable name="Y(150,7)" index="16545" value="1"/>
  <variable name="Y(154,19)" index="17001" value="4.3534305757094577e-10"/>
  <variable name="Y(155,22)" index="17115" value="0.99999999934698547"/>
  <variable name="Y(160,36)" index="17683" value="1"/>
  <variable name="Y(182,29)" index="20119" value="1"/>
  <variable name="Y(184,32)" index="20343" value="1"/>
  <variable name="Y(190,43)" index="21020" value="1"/>
  <variable name="Y(197,58)" index="21812" value="-2.5000002068509275e-10"/>
  <variable name="Y(198,12)" index="21878" value="1"/>
  <variable name="Y(199,22)" index="21999" value="1"/>
  <variable name="Y(200,14)" index="22102" value="1.0000000000580453"/>
  <variable name="Y(200,29)" index="22117" value="-5.8045257311074341e-11"/>
  <variable name="Y(202,2)" index="22312" value="1"/>
  <variable name="Y(213,14)" index="23545" value="1"/>
  <variable name="Y(219,23)" index="24220" value="-2.5394468535421708e-10"/>
  <variable name="Y(220,24)" index="24332" value="1"/>
  <variable name="Y(230,33)" index="25450" value="1"/>
  <variable name="Y(232,37)" index="25676" value="1"/>
  <variable name="Y(233,38)" index="25788" value="1"/>
  <variable name="Y(235,41)" index="26013" value="1"/>
  <variable name="Y(240,46)" index="26573" value="1"/>
  <variable name="Y(243,49)" index="26909" value="1"/>
  <variable name="Y(244,50)" index="27021" value="1"/>
  <variable name="Y(245,51)" index="27133" value="1"/>
  <variable name="Y(251,59)" index="27807" value="1.0000000006530145"/>
  <variable name="Y(264,34)" index="29225" value="1"/>
  <variable name="Y(280,21)" index="30989" value="8.8888155527477041e-10"/>
  <variable name="Y(282,23)" index="31213" value="0.99999999911111848"/>
  <variable name="Y(320,48)" index="35455" value="1"/>
  <variable name="Y(388,24)" index="42980" value="1"/>
  <variable name="Y(389,15)" index="43082" value="3.2650729317820934e-10"/>
  <variable name="Y(390,25)" index="43203" value="0.99999999967349273"/>
  <variable name="Y(392,1)" index="43401" value="-2.1767152878547289e-10"/>
  <variable name="Y(405,38)" index="44880" value="0.99999999974999998"/>
  <variable name="Y(405,58)" index="44900" value="2.5000002068509275e-10"/>
  <variable name="Y(409,12)" index="45299" value="1"/>
  <variable name="Y(412,22)" index="45642" value="5.3056520266303496e-10"/>
  <variable name="Y(416,28)" index="46092" value="1"/>
  <variable name="Y(431,29)" index="47758" value="7.7393676414765788e-11"/>
  <variable name="Y(439,15)" index="48632" value="-6.2356718842161781e-11"/>
  <variable name="Y(439,33)" index="48649" value="1.0000000001496581"/>
  <variable name="Y(439,54)" index="48670" value="-2.1825350438530482e-11"/>
  <variable name="Y(457,55)" index="50669" value="1"/>
  <variable name="Y(488,33)" index="54088" value="7.2554757769898624e-11"/>
  <variable name="Y(488,35)" index="54090" value="-7.2554757769898624e-11"/>
  <variable name="Y(492,40)" index="54539" value="1"/>
  <variable name="Y(504,52)" index="55883" value="1"/>
  <variable name="Y(509,34)" index="56420" value="1"/>
  <variable name="Y(525,17)" index="58180" value="1"/>
  <variable name="Y(526,18)" index="58292" value="1"/>
  <variable name="Y(535,28)" index="59301" value="1"/>
  <variable name="Y(541,35)" index="59973" value="1.0000000000725549"/>
  <variable name="Y(541,36)" index="59974" value="-7.2554757769898624e-11"/>
  <variable name="Y(547,54)" index="60658" value="1"/>
  <variable name="Y(551,47)" index="61095" value="1"/>
  <variable name="Y(557,53)" index="61767" value="1"/>
  <variable name="Y(561,59)" index="62217" value="-6.5301458635641868e-10"/>
  <variable name="Y(565,39)" index="62641" value="1"/>
  <variable name="Y(569,19)" index="63066" value="1"/>
  <variable name="Y(570,41)" index="63198" value="1"/>
  <variable name="Y(572,42)" index="63421" value="1"/>
  <variable name="Y(574,1)" index="63603" value="1"/>
  <variable name="Y(577,8)" index="63943" value="1"/>
  <variable name="Y(593,46)" index="65756" value="1"/>
  <variable name="Y(595,48)" index="65980" value="1"/>
  <variable name="Y(598,49)" index="66314" value="1"/>
  <variable name="Y(600,50)" index="66537" value="1"/>
  <variable name="Y(601,34)" index="66632" value="1.0883576439273646e-10"/>
  <variable name="Y(606,19)" index="67173" value="0.99999999956465691"/>
  <variable name="Y(607,22)" index="67287" value="1.2244938369338362e-10"/>
  <variable name="Y(612,16)" index="67836" value="1"/>
  <variable name="Y(623,3)" index="69044" value="1"/>
  <variable name="Y(638,26)" index="70732" value="1"/>
  <variable name="Y(640,31)" index="70958" value="1.0000000001160905"/>
  <variable name="Y(641,33)" index="71071" value="-5.8045257311074334e-11"/>
  <variable name="Y(649,5)" index="71932" value="3.2650729317820934e-10"/>
  <variable name="Y(650,15)" index="72053" value="0.99999999967349273"/>
  <variable name="Y(671,25)" index="74394" value="1"/>
  <variable name="Y(673,29)" index="74620" value="-5.8045257311074341e-11"/>
  <variable name="Y(675,33)" index="74845" value="1.0000000000580453"/>
  <variable name="Y(678,42)" index="75187" value="1"/>
  <variable name="Y(685,54)" index="75976" value="1"/>
  <variable name="X(1,34,2)" index="76036" value="1"/>
  <variable name="X(1,60,5)" index="76724" value="2.1767143643103282e-10"/>
  <variable name="X(1,60,392)" index="77111" value="-2.1767152878547289e-10"/>
  <variable name="X(1,60,574)" index="77293" value="1"/>
  <variable name="X(2,5,4)" index="77408" value="1"/>
  <variable name="X(2,61,202)" index="78291" value="1"/>
  <variable name="X(3,34,5)" index="78779" value="2.1767152878547286e-10"/>
  <variable name="X(3,34,17)" index="78791" value="-2.1767152878547286e-10"/>
  <variable name="X(3,34,20)" index="78794" value="1"/>
  <variable name="X(3,62,623)" index="80082" value="1"/>
  <variable name="X(4,36,26)" index="80170" value="0.99999999967349273"/>
  <variable name="X(4,36,30)" index="80174" value="3.2650729317820934e-10"/>
  <variable name="X(4,63,91)" index="80920" value="1"/>
  <variable name="X(5,2,202)" index="81716" value="1"/>
  <variable name="X(5,8,577)" index="82776" value="1"/>
  <variable name="X(5,11,41)" index="82925" value="-2.000000165480742e-09"/>
  <variable name="X(5,11,134)" index="83018" value="1.0000000020000002"/>
  <variable name="X(5,54,125)" index="83694" value="1"/>
  <variable name="X(5,64,26)" index="84280" value="0.99999999967349273"/>
  <variable name="X(5,64,649)" index="84903" value="3.2650729317820934e-10"/>
  <variable name="X(6,54,83)" index="85022" value="1"/>
  <variable name="X(6,65,125)" index="85749" value="1"/>
  <variable name="X(7,44,82)" index="86391" value="1"/>
  <variable name="X(7,54,91)" index="87085" value="1"/>
  <variable name="X(7,66,150)" index="87829" value="1"/>
  <variable name="X(8,5,125)" index="88489" value="1"/>
  <variable name="X(8,67,577)" index="89626" value="1"/>
  <variable name="X(9,23,154)" index="89888" value="6.5301458635641868e-10"/>
  <variable name="X(9,23,155)" index="89889" value="0.99999999934698547"/>
  <variable name="X(9,68,35)" index="90454" value="1"/>
  <variable name="X(10,57,160)" index="91264" value="1"/>
  <variable name="X(10,69,96)" index="91885" value="1"/>
  <variable name="X(11,5,577)" index="93051" value="1"/>
  <variable name="X(11,22,41)" index="93200" value="-6.6664450034356923e-10"/>
  <variable name="X(11,22,134)" index="93293" value="1"/>
  <variable name="X(11,22,219)" index="93378" value="-1.9045375267184604e-10"/>
  <variable name="X(11,22,412)" index="93571" value="5.3056520266303496e-10"/>
  <variable name="X(11,22,607)" index="93766" value="3.2653305035238059e-10"/>
  <variable name="X(11,43,190)" index="94034" value="1"/>
  <variable name="X(11,44,150)" index="94679" value="1"/>
  <variable name="X(11,45,83)" index="95297" value="1"/>
  <variable name="X(11,54,685)" index="96584" value="1"/>
  <variable name="X(11,70,97)" index="96681" value="1"/>
  <variable name="X(12,54,198)" index="97467" value="1"/>
  <variable name="X(12,71,409)" index="98363" value="1"/>
  <variable name="X(13,21,199)" index="98838" value="1"/>
  <variable name="X(14,29,200)" index="99524" value="1"/>
  <variable name="X(14,73,213)" index="100222" value="1"/>
  <variable name="X(15,27,75)" index="100769" value="1"/>
  <variable name="X(15,29,76)" index="101455" value="-7.7393676414765788e-11"/>
  <variable name="X(15,29,182)" index="101561" value="1"/>
  <variable name="X(15,29,431)" index="101810" value="7.7393676414765788e-11"/>
  <variable name="X(15,33,139)" index="102203" value="-5.8045257311074341e-11"/>
  <variable name="X(15,33,675)" index="102739" value="1.0000000000580453"/>
  <variable name="X(15,34,574)" index="103323" value="1"/>
  <variable name="X(15,45,251)" index="103685" value="1"/>
  <variable name="X(15,45,412)" index="103846" value="5.3056520266303507e-10"/>
  <variable name="X(15,45,561)" index="103995" value="-6.5301458635641868e-10"/>
  <variable name="X(15,45,607)" index="104041" value="1.2244938369338362e-10"/>
  <variable name="X(15,48,243)" index="104362" value="4.3534309490667056e-10"/>
  <variable name="X(15,48,606)" index="104725" value="0.99999999956465691"/>
  <variable name="X(15,54,408)" index="105212" value="-1.7684917258192562e-10"/>
  <variable name="X(15,54,409)" index="105213" value="1"/>
  <variable name="X(15,54,439)" index="105243" value="-1.4965812059628372e-10"/>
  <variable name="X(15,54,649)" index="105453" value="3.2650729317820934e-10"/>
  <variable name="X(15,74,389)" index="105878" value="3.2650729317820934e-10"/>
  <variable name="X(15,74,650)" index="106139" value="0.99999999967349273"/>
  <variable name="X(16,34,264)" index="106438" value="1"/>
  <variable name="X(16,36,612)" index="107471" value="1"/>
  <variable name="X(16,52,504)" index="108048" value="1"/>
  <variable name="X(16,75,67)" index="108296" value="1"/>
  <variable name="X(17,76,525)" index="109439" value="1"/>
  <variable name="X(18,33,640)" index="110239" value="1.0000000001160905"/>
  <variable name="X(18,33,641)" index="110240" value="-1.1609051462214862e-10"/>
  <variable name="X(18,55,457)" index="110741" value="1"/>
  <variable name="X(18,77,526)" index="111495" value="1"/>
  <variable name="X(19,22,280)" index="111934" value="8.8888155527477041e-10"/>
  <variable name="X(19,22,282)" index="111936" value="0.99999999911111848"/>
  <variable name="X(19,40,492)" index="112831" value="1"/>
  <variable name="X(19,42,678)" index="113702" value="1"/>
  <variable name="X(19,48,320)" index="114029" value="1"/>
  <variable name="X(19,54,569)" index="114963" value="1"/>
  <variable name="X(19,78,154)" index="115233" value="4.3534305757094577e-10"/>
  <variable name="X(19,78,606)" index="115685" value="0.99999999956465691"/>
  <variable name="X(20,22,320)" index="116084" value="1"/>
  <variable name="X(21,22,199)" index="116648" value="1"/>
  <variable name="X(21,80,41)" index="117175" value="-8.8888155527477041e-10"/>
  <variable name="X(21,80,134)" index="117268" value="1"/>
  <variable name="X(21,80,280)" index="117414" value="8.8888155527477041e-10"/>
  <variable name="X(22,11,199)" index="118018" value="1"/>
  <variable name="X(22,19,154)" index="118658" value="4.3534305757094577e-10"/>
  <variable name="X(22,19,320)" index="118824" value="0.99999999956465691"/>
  <variable name="X(22,21,41)" index="119230" value="-8.8888155527477041e-10"/>
  <variable name="X(22,21,134)" index="119323" value="1"/>
  <variable name="X(22,21,280)" index="119469" value="8.8888155527477041e-10"/>
  <variable name="X(22,23,72)" index="119946" value="1.1428262406289874e-09"/>
  <variable name="X(22,23,219)" index="120093" value="-2.5394468535421708e-10"/>
  <variable name="X(22,23,282)" index="120156" value="0.99999999911111848"/>
  <variable name="X(22,24,220)" index="120779" value="1"/>
  <variable name="X(22,81,155)" index="121399" value="0.99999999934698547"/>
  <variable name="X(22,81,412)" index="121656" value="5.3056520266303496e-10"/>
  <variable name="X(22,81,607)" index="121851" value="1.2244938369338362e-10"/>
  <variable name="X(23,9,35)" index="121964" value="1"/>
  <variable name="X(23,22,154)" index="122768" value="6.5301458635641868e-10"/>
  <variable name="X(23,22,155)" index="122769" value="0.99999999934698547"/>
  <variable name="X(23,82,72)" index="123371" value="1.1428261670332063e-09"/>
  <variable name="X(23,82,219)" index="123518" value="-2.5394468535421708e-10"/>
  <variable name="X(23,82,282)" index="123581" value="0.99999999911111848"/>
  <variable name="X(24,22,388)" index="124372" value="1"/>
  <variable name="X(24,83,220)" index="124889" value="1"/>
  <variable name="X(25,36,389)" index="125743" value="3.2650729317820934e-10"/>
  <variable name="X(25,36,390)" index="125744" value="0.99999999967349273"/>
  <variable name="X(25,84,671)" index="126710" value="1"/>
  <variable name="X(26,36,392)" index="127116" value="-3.2650729317820934e-10"/>
  <variable name="X(26,36,405)" index="127129" value="1.0000000003265073"/>
  <variable name="X(26,85,638)" index="128047" value="1"/>
  <variable name="X(27,15,408)" index="128502" value="-5.3056520266303507e-10"/>
  <variable name="X(27,15,409)" index="128503" value="1"/>
  <variable name="X(27,15,412)" index="128506" value="5.3056520266303507e-10"/>
  <variable name="X(27,86,75)" index="128854" value="1"/>
  <variable name="X(28,54,416)" index="129880" value="1"/>
  <variable name="X(28,87,535)" index="130684" value="1"/>
  <variable name="X(29,14,213)" index="131047" value="1"/>
  <variable name="X(29,15,200)" index="131719" value="-5.8045257311074341e-11"/>
  <variable name="X(29,15,675)" index="132194" value="1.0000000000580453"/>
  <variable name="X(29,88,76)" index="132280" value="-1.9348419103691447e-11"/>
  <variable name="X(29,88,182)" index="132386" value="1"/>
  <variable name="X(29,88,431)" index="132635" value="7.7393676414765788e-11"/>
  <variable name="X(29,88,673)" index="132877" value="-5.8045257311074341e-11"/>
  <variable name="X(31,32,184)" index="133073" value="1"/>
  <variable name="X(31,33,439)" index="134013" value="1"/>
  <variable name="X(31,90,17)" index="134276" value="-9.6741947785972116e-11"/>
  <variable name="X(31,90,139)" index="134398" value="-1.9348419103691447e-11"/>
  <variable name="X(31,90,640)" index="134899" value="1.0000000001160905"/>
  <variable name="X(32,31,439)" index="135383" value="1"/>
  <variable name="X(32,91,184)" index="135813" value="1"/>
  <variable name="X(33,15,439)" index="136753" value="1"/>
  <variable name="X(33,17,525)" index="137524" value="1"/>
  <variable name="X(33,18,457)" index="138141" value="1"/>
  <variable name="X(33,31,17)" index="138386" value="-9.674209551845717e-11"/>
  <variable name="X(33,31,139)" index="138508" value="-1.9348419103691447e-11"/>
  <variable name="X(33,31,640)" index="139009" value="1.0000000001160905"/>
  <variable name="X(33,34,509)" index="139563" value="1"/>
  <variable name="X(33,35,230)" index="139969" value="1"/>
  <variable name="X(33,92,641)" index="141065" value="-5.8045257311074334e-11"/>
  <variable name="X(33,92,675)" index="141099" value="1.0000000000580453"/>
  <variable name="X(34,1,5)" index="141114" value="2.1767152878547286e-10"/>
  <variable name="X(34,1,392)" index="141501" value="-2.1767152878547289e-10"/>
  <variable name="X(34,1,574)" index="141683" value="1"/>
  <variable name="X(34,3,623)" index="142417" value="1"/>
  <variable name="X(34,15,389)" index="142868" value="3.2650729317820934e-10"/>
  <variable name="X(34,15,601)" index="143080" value="1.0883576439273646e-10"/>
  <variable name="X(34,15,606)" index="143085" value="0.99999999956465691"/>
  <variable name="X(34,16,504)" index="143668" value="1"/>
  <variable name="X(34,33,17)" index="143866" value="-7.2554757769898624e-11"/>
  <variable name="X(34,33,488)" index="144337" value="7.2554757769898624e-11"/>
  <variable name="X(34,33,525)" index="144374" value="1"/>
  <variable name="X(34,36,20)" index="144554" value="1"/>
  <variable name="X(34,51,245)" index="145464" value="1"/>
  <variable name="X(34,55,264)" index="146168" value="1"/>
  <variable name="X(34,93,509)" index="147098" value="1"/>
  <variable name="X(35,33,509)" index="147783" value="1"/>
  <variable name="X(35,94,488)" index="148447" value="-7.2554757769898624e-11"/>
  <variable name="X(35,94,541)" index="148500" value="1.0000000000725549"/>
  <variable name="X(36,4,91)" index="148735" value="1"/>
  <variable name="X(36,16,67)" index="149396" value="1"/>
  <variable name="X(36,25,671)" index="150685" value="1"/>
  <variable name="X(36,26,638)" index="151337" value="1"/>
  <variable name="X(36,34,160)" index="151544" value="1"/>
  <variable name="X(36,34,389)" index="151773" value="3.2650729317820934e-10"/>
  <variable name="X(36,34,392)" index="151776" value="-3.2650729317820934e-10"/>
  <variable name="X(36,35,541)" index="152610" value="1"/>
  <variable name="X(36,37,232)" index="152986" value="1"/>
  <variable name="X(36,38,405)" index="153844" value="1"/>
  <variable name="X(36,39,557)" index="154681" value="1"/>
  <variable name="X(36,50,244)" index="155053" value="1"/>
  <variable name="X(36,54,26)" index="155520" value="0.99999999967349273"/>
  <variable name="X(36,54,30)" index="155524" value="3.2650729317820934e-10"/>
  <variable name="X(36,55,526)" index="156705" value="1"/>
  <variable name="X(36,57,96)" index="156960" value="1"/>
  <variable name="X(36,95,20)" index="157569" value="1"/>
  <variable name="X(37,96,232)" index="158466" value="1"/>
  <variable name="X(38,36,671)" index="159590" value="1"/>
  <variable name="X(38,58,405)" index="160009" value="1"/>
  <variable name="X(38,97,233)" index="160522" value="1"/>
  <variable name="X(39,36,565)" index="161539" value="1"/>
  <variable name="X(39,53,557)" index="162216" value="1"/>
  <variable name="X(40,19,569)" index="162913" value="1"/>
  <variable name="X(40,99,492)" index="163521" value="1"/>
  <variable name="X(41,48,570)" index="164284" value="1"/>
  <variable name="X(41,100,235)" index="164634" value="1"/>
  <variable name="X(42,19,572)" index="165656" value="1"/>
  <variable name="X(42,101,678)" index="166447" value="1"/>
  <variable name="X(43,11,577)" index="167031" value="1"/>
  <variable name="X(43,54,574)" index="167713" value="1"/>
  <variable name="X(43,102,190)" index="168014" value="1"/>
  <variable name="X(44,7,150)" index="168659" value="1"/>
  <variable name="X(44,11,97)" index="169291" value="1"/>
  <variable name="X(44,103,82)" index="169961" value="1"/>
  <variable name="X(45,11,219)" index="170783" value="-5.7138030339080528e-10"/>
  <variable name="X(45,11,412)" index="170976" value="5.3056520266303496e-10"/>
  <variable name="X(45,11,607)" index="171171" value="4.0815100727770289e-11"/>
  <variable name="X(45,11,685)" index="171249" value="1"/>
  <variable name="X(45,15,182)" index="171431" value="1"/>
  <variable name="X(45,59,251)" index="172185" value="1.0000000006530145"/>
  <variable name="X(45,59,561)" index="172495" value="-6.5301458635641868e-10"/>
  <variable name="X(45,104,83)" index="172702" value="1"/>
  <variable name="X(46,48,593)" index="173897" value="1"/>
  <variable name="X(46,105,240)" index="174229" value="1"/>
  <variable name="X(47,48,595)" index="175269" value="1"/>
  <variable name="X(47,106,551)" index="175910" value="1"/>
  <variable name="X(48,15,595)" index="176639" value="1"/>
  <variable name="X(48,19,411)" index="177140" value="4.3534309490667056e-10"/>
  <variable name="X(48,19,606)" index="177335" value="0.99999999956465691"/>
  <variable name="X(48,41,235)" index="177649" value="1"/>
  <variable name="X(48,46,240)" index="178339" value="1"/>
  <variable name="X(48,47,551)" index="179335" value="1"/>
  <variable name="X(48,49,243)" index="179712" value="1"/>
  <variable name="X(48,107,320)" index="180474" value="1"/>
  <variable name="X(49,48,598)" index="181437" value="1"/>
  <variable name="X(49,108,243)" index="181767" value="1"/>
  <variable name="X(50,36,600)" index="182809" value="1"/>
  <variable name="X(50,109,244)" index="183138" value="1"/>
  <variable name="X(51,34,601)" index="184180" value="4.3534305757094582e-10"/>
  <variable name="X(51,34,606)" index="184185" value="0.99999999956465691"/>
  <variable name="X(51,110,245)" index="184509" value="1"/>
  <variable name="X(52,16,612)" index="185561" value="1"/>
  <variable name="X(52,111,504)" index="186138" value="1"/>
  <variable name="X(53,112,557)" index="186876" value="1"/>
  <variable name="X(54,5,26)" index="187030" value="0.99999999967349273"/>
  <variable name="X(54,5,649)" index="187653" value="3.2650729317820934e-10"/>
  <variable name="X(54,6,125)" index="187814" value="1"/>
  <variable name="X(54,7,82)" index="188456" value="1"/>
  <variable name="X(54,11,83)" index="189142" value="1"/>
  <variable name="X(54,12,409)" index="190153" value="1"/>
  <variable name="X(54,15,574)" index="191003" value="1"/>
  <variable name="X(54,19,678)" index="191792" value="1"/>
  <variable name="X(54,28,535)" index="192334" value="1"/>
  <variable name="X(54,36,91)" index="192575" value="1"/>
  <variable name="X(54,43,547)" index="193716" value="1"/>
  <variable name="X(54,58,148)" index="194002" value="1.0000000010000001"/>
  <variable name="X(54,58,197)" index="194051" value="-1.000000082740371e-09"/>
  <variable name="X(54,113,4)" index="194543" value="-3.939476703238377e-11"/>
  <variable name="X(54,113,30)" index="194569" value="6.1220117470914252e-11"/>
  <variable name="X(54,113,439)" index="194978" value="-2.1825350438530482e-11"/>
  <variable name="X(54,113,685)" index="195224" value="1"/>
  <variable name="X(55,18,526)" index="195750" value="1"/>
  <variable name="X(55,34,623)" index="196532" value="1"/>
  <variable name="X(55,36,638)" index="197232" value="1"/>
  <variable name="X(55,114,457)" index="197736" value="1"/>
  <variable name="X(56,15,649)" index="198613" value="3.2650729317820934e-10"/>
  <variable name="X(56,15,650)" index="198614" value="0.99999999967349273"/>
  <variable name="X(57,10,96)" index="198745" value="1"/>
  <variable name="X(57,36,160)" index="199494" value="1"/>
  <variable name="X(58,29,673)" index="200692" value="-5.8045257311074341e-11"/>
  <variable name="X(58,29,675)" index="200694" value="1.0000000000580453"/>
  <variable name="X(58,38,671)" index="201375" value="1"/>
  <variable name="X(58,54,678)" index="202067" value="1"/>
  <variable name="X(58,117,148)" index="202222" value="1"/>
  <variable name="X(58,117,197)" index="202271" value="-2.5000002068509275e-10"/>
  <variable name="X(58,117,405)" index="202479" value="2.5000002068509275e-10"/>
  <variable name="X(59,45,685)" index="203444" value="1"/>
  <variable name="X(59,118,251)" index="203695" value="1.0000000006530145"/>
  <variable name="X(59,118,561)" index="204005" value="-6.5301458635641868e-10"/>
  <variable name="C(4,5)" index="204142" value="-2.9546075274287824e-11"/>
  <variable name="C(4,54)" index="204143" value="-7.878953406476754e-11"/>
  <variable name="C(5,34)" index="204145" value="2.1767152878547286e-10"/>
  <variable name="C(5,1)" index="204146" value="4.3534305757094572e-10"/>
  <variable name="C(17,34)" index="204203" value="-2.1767152878547286e-10"/>
  <variable name="C(17,33)" index="204204" value="-2.9022628655537147e-10"/>
  <variable name="C(17,31)" index="204205" value="-3.8696838207382868e-10"/>
  <variable name="C(20,34)" index="204212" value="1"/>
  <variable name="C(20,36)" index="204213" value="2"/>
  <variable name="C(26,36)" index="204236" value="0.99999999967349273"/>
  <variable name="C(26,54)" index="204237" value="1.9999999993469855"/>
  <variable name="C(26,5)" index="204238" value="2.9999999990204782"/>
  <variable name="C(30,36)" index="204251" value="3.2650729317820934e-10"/>
  <variable name="C(30,54)" index="204252" value="2.4488046988365701e-10"/>
  <variable name="C(35,9)" index="204270" value="1"/>
  <variable name="C(41,11)" index="204288" value="-2.000000165480742e-09"/>
  <variable name="C(41,22)" index="204289" value="-2.6666446658243113e-09"/>
  <variable name="C(41,21)" index="204290" value="-3.5555262210990816e-09"/>
  <variable name="C(67,16)" index="204391" value="1.0000000010000001"/>
  <variable name="C(72,23)" index="204413" value="1.1428262406289874e-09"/>
  <variable name="C(75,27)" index="204425" value="1"/>
  <variable name="C(76,29)" index="204429" value="-7.7393676414765788e-11"/>
  <variable name="C(82,7)" index="204452" value="1"/>
  <variable name="C(82,44)" index="204453" value="2"/>
  <variable name="C(83,54)" index="204455" value="1"/>
  <variable name="C(83,11)" index="204456" value="2"/>
  <variable name="C(83,45)" index="204457" value="3"/>
  <variable name="C(91,54)" index="204487" value="1"/>
  <variable name="C(91,36)" index="204488" value="2"/>
  <variable name="C(91,4)" index="204489" value="3"/>
  <variable name="C(96,57)" index="204509" value="1"/>
  <variable name="C(96,10)" index="204510" value="2"/>
  <variable name="C(97,11)" index="204513" value="0.99999999999999978"/>
  <variable name="C(125,5)" index="204621" value="1"/>
  <variable name="C(125,54)" index="204622" value="2"/>
  <variable name="C(125,6)" index="204623" value="3"/>
  <variable name="C(134,11)" index="204662" value="1.0000000020000002"/>
  <variable name="C(134,22)" index="204663" value="2.0000000020000002"/>
  <variable name="C(134,21)" index="204664" value="3.0000000020000002"/>
  <variable name="C(139,33)" index="204688" value="-5.8045257311074341e-11"/>
  <variable name="C(139,31)" index="204689" value="-7.7393676414765788e-11"/>
  <variable name="C(148,58)" index="204731" value="1.0000000010000001"/>
  <variable name="C(150,44)" index="204741" value="1"/>
  <variable name="C(150,7)" index="204742" value="2"/>
  <variable name="C(154,23)" index="204762" value="6.5301458635641868e-10"/>
  <variable name="C(154,22)" index="204763" value="1.3060291727128374e-09"/>
  <variable name="C(154,19)" index="204764" value="1.7413722302837831e-09"/>
  <variable name="C(155,23)" index="204766" value="0.99999999934698547"/>
  <variable name="C(155,22)" index="204767" value="1.9999999986939709"/>
  <variable name="C(160,57)" index="204792" value="1"/>
  <variable name="C(160,36)" index="204793" value="2"/>
  <variable name="C(182,15)" index="204873" value="1"/>
  <variable name="C(182,29)" index="204874" value="2"/>
  <variable name="C(184,32)" index="204885" value="1"/>
  <variable name="C(190,43)" index="204906" value="1"/>
  <variable name="C(197,11)" index="204926" value="-5.000000413701855e-10"/>
  <variable name="C(197,54)" index="204927" value="-5.000000413701855e-10"/>
  <variable name="C(197,58)" index="204928" value="-1.000000082740371e-09"/>
  <variable name="C(199,21)" index="204934" value="1"/>
  <variable name="C(199,22)" index="204935" value="2"/>
  <variable name="C(200,29)" index="204941" value="-5.8045257311074341e-11"/>
  <variable name="C(202,2)" index="204950" value="1"/>
  <variable name="C(213,14)" index="204990" value="1"/>
  <variable name="C(219,11)" index="205011" value="-5.7138030339080528e-10"/>
  <variable name="C(219,22)" index="205012" value="-7.6183405606265134e-10"/>
  <variable name="C(219,23)" index="205013" value="-1.0157787414168683e-09"/>
  <variable name="C(220,24)" index="205018" value="1"/>
  <variable name="C(232,37)" index="205054" value="1"/>
  <variable name="C(235,41)" index="205065" value="1"/>
  <variable name="C(240,46)" index="205081" value="1"/>
  <variable name="C(243,48)" index="205088" value="4.3534309490667056e-10"/>
  <variable name="C(243,49)" index="205089" value="1.0000000004353431"/>
  <variable name="C(244,50)" index="205093" value="1"/>
  <variable name="C(245,51)" index="205096" value="1"/>
  <variable name="C(251,45)" index="205115" value="1"/>
  <variable name="C(251,59)" index="205116" value="2.0000000006530145"/>
  <variable name="C(264,34)" index="205162" value="1"/>
  <variable name="C(280,22)" index="205223" value="8.8888155527477041e-10"/>
  <variable name="C(280,21)" index="205224" value="1.7777631105495408e-09"/>
  <variable name="C(282,22)" index="205228" value="0.99999999911111848"/>
  <variable name="C(282,23)" index="205229" value="1.999999998222237"/>
  <variable name="C(320,20)" index="205392" value="1.0000000004353429"/>
  <variable name="C(320,22)" index="205393" value="2.0000000004353429"/>
  <variable name="C(320,19)" index="205394" value="3"/>
  <variable name="C(320,48)" index="205395" value="4"/>
  <variable name="C(389,36)" index="205712" value="3.2650729317820934e-10"/>
  <variable name="C(389,34)" index="205713" value="6.5301458635641868e-10"/>
  <variable name="C(389,15)" index="205714" value="9.7952187953462803e-10"/>
  <variable name="C(392,36)" index="205722" value="-3.2650729317820934e-10"/>
  <variable name="C(392,34)" index="205723" value="-6.5301458635641868e-10"/>
  <variable name="C(392,1)" index="205724" value="-8.7068611514189154e-10"/>
  <variable name="C(405,36)" index="205774" value="1.0000000003265073"/>
  <variable name="C(405,38)" index="205775" value="2.0000000003265073"/>
  <variable name="C(405,58)" index="205776" value="1.000000082740371e-09"/>
  <variable name="C(408,15)" index="205786" value="-5.3056520266303507e-10"/>
  <variable name="C(408,54)" index="205787" value="-7.0741437524496064e-10"/>
  <variable name="C(409,15)" index="205791" value="1"/>
  <variable name="C(409,54)" index="205792" value="2"/>
  <variable name="C(409,12)" index="205793" value="3"/>
  <variable name="C(411,19)" index="205799" value="4.3534309490667056e-10"/>
  <variable name="C(412,15)" index="205801" value="5.3056520266303507e-10"/>
  <variable name="C(412,45)" index="205802" value="1.0611304053260701e-09"/>
  <variable name="C(412,11)" index="205803" value="1.5916956079891052e-09"/>
  <variable name="C(412,22)" index="205804" value="2.1222608106521398e-09"/>
  <variable name="C(431,29)" index="205886" value="7.7393676414765788e-11"/>
  <variable name="C(439,31)" index="205916" value="1"/>
  <variable name="C(439,33)" index="205917" value="2"/>
  <variable name="C(439,15)" index="205918" value="-2.4942687536864707e-10"/>
  <variable name="C(439,54)" index="205919" value="-8.7301401754121926e-11"/>
  <variable name="C(457,18)" index="205984" value="1"/>
  <variable name="C(457,55)" index="205985" value="2"/>
  <variable name="C(488,33)" index="206102" value="7.2554757769898624e-11"/>
  <variable name="C(488,35)" index="206103" value="-7.2554757769898624e-11"/>
  <variable name="C(492,40)" index="206116" value="1"/>
  <variable name="C(504,16)" index="206159" value="1"/>
  <variable name="C(504,52)" index="206160" value="2"/>
  <variable name="C(509,33)" index="206175" value="1"/>
  <variable name="C(509,34)" index="206176" value="2"/>
  <variable name="C(525,33)" index="206229" value="1"/>
  <variable name="C(525,17)" index="206230" value="2"/>
  <variable name="C(526,55)" index="206232" value="1"/>
  <variable name="C(526,18)" index="206233" value="2"/>
  <variable name="C(535,28)" index="206266" value="1"/>
  <variable name="C(541,35)" index="206286" value="1.0000000000725549"/>
  <variable name="C(551,47)" index="206324" value="1"/>
  <variable name="C(557,39)" index="206343" value="1"/>
  <variable name="C(557,53)" index="206344" value="2"/>
  <variable name="C(561,45)" index="206355" value="-6.5301458635641868e-10"/>
  <variable name="C(561,59)" index="206356" value="-1.3060291727128374e-09"/>
  <variable name="C(569,19)" index="206383" value="1"/>
  <variable name="C(574,54)" index="206402" value="1"/>
  <variable name="C(574,15)" index="206403" value="2"/>
  <variable name="C(574,34)" index="206404" value="3"/>
  <variable name="C(574,1)" index="206405" value="4"/>
  <variable name="C(577,11)" index="206413" value="1"/>
  <variable name="C(577,5)" index="206414" value="2"/>
  <variable name="C(577,8)" index="206415" value="3"/>
  <variable name="C(595,48)" index="206474" value="1"/>
  <variable name="C(601,34)" index="206495" value="4.3534305757094582e-10"/>
  <variable name="C(606,34)" index="206519" value="0.99999999956465691"/>
  <variable name="C(606,15)" index="206520" value="1.9999999991293138"/>
  <variable name="C(606,48)" index="206521" value="2.9999999986939709"/>
  <variable name="C(606,19)" index="206522" value="3.9999999982586276"/>
  <variable name="C(607,45)" index="206526" value="1.2244938369338362e-10"/>
  <variable name="C(607,11)" index="206527" value="1.6326448442115391e-10"/>
  <variable name="C(607,22)" index="206528" value="4.8979753477353448e-10"/>
  <variable name="C(612,16)" index="206544" value="1"/>
  <variable name="C(623,34)" index="206572" value="1"/>
  <variable name="C(623,3)" index="206573" value="2"/>
  <variable name="C(638,36)" index="206633" value="1"/>
  <variable name="C(638,26)" index="206634" value="1.9999999999999991"/>
  <variable name="C(640,33)" index="206641" value="1.0000000001160905"/>
  <variable name="C(640,31)" index="206642" value="2.0000000002321809"/>
  <variable name="C(641,33)" index="206645" value="-1.1609051462214862e-10"/>
  <variable name="C(649,15)" index="206670" value="3.2650729317820934e-10"/>
  <variable name="C(649,54)" index="206671" value="6.5301458635641868e-10"/>
  <variable name="C(649,5)" index="206672" value="9.7952187953462803e-10"/>
  <variable name="C(650,15)" index="206674" value="0.99999999967349273"/>
  <variable name="C(671,38)" index="206750" value="1"/>
  <variable name="C(671,36)" index="206751" value="2"/>
  <variable name="C(671,25)" index="206752" value="3"/>
  <variable name="C(673,29)" index="206758" value="-5.8045257311074341e-11"/>
  <variable name="C(675,29)" index="206765" value="1.0000000000580453"/>
  <variable name="C(675,15)" index="206766" value="2.0000000001160907"/>
  <variable name="C(675,33)" index="206767" value="3.0000000001741363"/>
  <variable name="C(678,54)" index="206776" value="1"/>
  <variable name="C(678,19)" index="206777" value="2"/>
  <variable name="C(678,42)" index="206778" value="3"/>
  <variable name="C(685,45)" index="206802" value="1"/>
  <variable name="C(685,11)" index="206803" value="2"/>
  <variable name="C(685,54)" index="206804" value="2.9999999999999991"/>
 </variables>
</CPLEXSolution>
